p cnf 9 27 
c Factors encoded in variables 1-5 and 6-9
c Target number: 377
c Factors: 29 x 13
-3 2 -8 -7 0
-3 8 0
4 8 0
4 3 -7 0
4 -3 -2 8 7 0
9 0
3 2 8 7 0
2 -7 0
-4 -3 -7 0
1 0
-4 3 -2 -7 0
3 8 -7 0
-8 -7 0
5 0
-4 3 2 0
3 -8 0
4 2 -8 7 0
-4 -3 -2 0
-4 -3 -2 -7 0
3 -8 7 0
8 7 0
4 2 0
-2 7 0
-4 2 8 0
4 8 7 0
6 0
4 3 0
